global(59).

train(0). start(0,(6,19),0,w). end(0,(10,5),59). speed(0,1). pow_type(0, electro). weight(0,2).

train(1). start(1,(9,5),0,e). end(1,(7,19),59). speed(1,1). pow_type(1, diesel). weight(1,1).

cell((0,0), 0).
cell((0,1), 0).
cell((0,2), 0).
cell((0,3), 0).
cell((0,4), 0).
cell((0,5), 0).
cell((0,6), 0).
cell((0,7), 0).
cell((0,8), 0).
cell((0,9), 0).
cell((0,10), 0).
cell((0,11), 0).
cell((0,12), 0).
cell((0,13), 0).
cell((0,14), 0).
cell((0,15), 0).
cell((0,16), 0).
cell((0,17), 0).
cell((0,18), 0).
cell((0,19), 0).
cell((0,20), 0).
cell((0,21), 0).
cell((0,22), 0).
cell((0,23), 0).
cell((0,24), 0).

cell((1,0), 0).
cell((1,1), 0).
cell((1,2), 0).
cell((1,3), 0).
cell((1,4), 0).
cell((1,5), 0).
cell((1,6), 0).
cell((1,7), 0).
cell((1,8), 0).
cell((1,9), 0).
cell((1,10), 0).
cell((1,11), 0).
cell((1,12), 0).
cell((1,13), 0).
cell((1,14), 0).
cell((1,15), 0).
cell((1,16), 0).
cell((1,17), 0).
cell((1,18), 0).
cell((1,19), 0).
cell((1,20), 0).
cell((1,21), 0).
cell((1,22), 0).
cell((1,23), 0).
cell((1,24), 0).

cell((2,0), 0).
cell((2,1), 0).
cell((2,2), 0).
cell((2,3), 0).
cell((2,4), 0).
cell((2,5), 0).
cell((2,6), 0).
cell((2,7), 0).
cell((2,8), 0).
cell((2,9), 0).
cell((2,10), 0).
cell((2,11), 0).
cell((2,12), 0).
cell((2,13), 0).
cell((2,14), 0).
cell((2,15), 0).
cell((2,16), 0).
cell((2,17), 0).
cell((2,18), 0).
cell((2,19), 0).
cell((2,20), 0).
cell((2,21), 0).
cell((2,22), 0).
cell((2,23), 0).
cell((2,24), 0).

cell((3,0), 0).
cell((3,1), 0).
cell((3,2), 0).
cell((3,3), 0).
cell((3,4), 0).
cell((3,5), 0).
cell((3,6), 0).
cell((3,7), 0).
cell((3,8), 0).
cell((3,9), 0).
cell((3,10), 0).
cell((3,11), 0).
cell((3,12), 0).
cell((3,13), 0).
cell((3,14), 0).
cell((3,15), 0).
cell((3,16), 0).
cell((3,17), 0).
cell((3,18), 0).
cell((3,19), 0).
cell((3,20), 0).
cell((3,21), 0).
cell((3,22), 0).
cell((3,23), 0).
cell((3,24), 0).

cell((4,0), 16386).
cell((4,1), 1025).
cell((4,2), 1025).
cell((4,3), 1025).
cell((4,4), 1025).
cell((4,5), 1025).
cell((4,6), 1025).
cell((4,7), 1025).
cell((4,8), 1025).
cell((4,9), 1025).
cell((4,10), 1025).
cell((4,11), 1025).
cell((4,12), 1025).
cell((4,13), 1025).
cell((4,14), 4608).
cell((4,15), 0).
cell((4,16), 0).
cell((4,17), 0).
cell((4,18), 0).
cell((4,19), 0).
cell((4,20), 0).
cell((4,21), 0).
cell((4,22), 0).
cell((4,23), 0).
cell((4,24), 0).

cell((5,0), 32800).
cell((5,1), 0).
cell((5,2), 0).
cell((5,3), 0).
cell((5,4), 0).
cell((5,5), 0).
cell((5,6), 0).
cell((5,7), 0).
cell((5,8), 0).
cell((5,9), 0).
cell((5,10), 0).
cell((5,11), 0).
cell((5,12), 0).
cell((5,13), 0).
cell((5,14), 32800).
cell((5,15), 0).
cell((5,16), 0).
cell((5,17), 0).
cell((5,18), 0).
cell((5,19), 0).
cell((5,20), 0).
cell((5,21), 0).
cell((5,22), 0).
cell((5,23), 0).
cell((5,24), 0).

cell((6,0), 32800).
cell((6,1), 0).
cell((6,2), 0).
cell((6,3), 0).
cell((6,4), 0).
cell((6,5), 0).
cell((6,6), 0).
cell((6,7), 0).
cell((6,8), 0).
cell((6,9), 0).
cell((6,10), 16386).
cell((6,11), 1025).
cell((6,12), 1025).
cell((6,13), 1025).
cell((6,14), 38505).
cell((6,15), 1025).
cell((6,16), 5633).
cell((6,17), 17411).
cell((6,18), 1025).
cell((6,19), 1025).
cell((6,20), 1025).
cell((6,21), 5633).
cell((6,22), 17411).
cell((6,23), 1025).
cell((6,24), 4608).

cell((7,0), 32800).
cell((7,1), 0).
cell((7,2), 0).
cell((7,3), 0).
cell((7,4), 0).
cell((7,5), 0).
cell((7,6), 0).
cell((7,7), 0).
cell((7,8), 0).
cell((7,9), 0).
cell((7,10), 32800).
cell((7,11), 0).
cell((7,12), 0).
cell((7,13), 0).
cell((7,14), 32800).
cell((7,15), 0).
cell((7,16), 72).
cell((7,17), 3089).
cell((7,18), 1025).
cell((7,19), 1025).
cell((7,20), 1025).
cell((7,21), 1097).
cell((7,22), 2064).
cell((7,23), 0).
cell((7,24), 32800).

cell((8,0), 32800).
cell((8,1), 0).
cell((8,2), 0).
cell((8,3), 0).
cell((8,4), 0).
cell((8,5), 0).
cell((8,6), 0).
cell((8,7), 0).
cell((8,8), 0).
cell((8,9), 0).
cell((8,10), 32800).
cell((8,11), 0).
cell((8,12), 0).
cell((8,13), 0).
cell((8,14), 32800).
cell((8,15), 0).
cell((8,16), 0).
cell((8,17), 0).
cell((8,18), 0).
cell((8,19), 0).
cell((8,20), 0).
cell((8,21), 0).
cell((8,22), 0).
cell((8,23), 0).
cell((8,24), 32800).

cell((9,0), 72).
cell((9,1), 1025).
cell((9,2), 5633).
cell((9,3), 17411).
cell((9,4), 1025).
cell((9,5), 1025).
cell((9,6), 1025).
cell((9,7), 5633).
cell((9,8), 17411).
cell((9,9), 1025).
cell((9,10), 52275).
cell((9,11), 1025).
cell((9,12), 1025).
cell((9,13), 1025).
cell((9,14), 2064).
cell((9,15), 0).
cell((9,16), 0).
cell((9,17), 0).
cell((9,18), 0).
cell((9,19), 0).
cell((9,20), 0).
cell((9,21), 0).
cell((9,22), 0).
cell((9,23), 0).
cell((9,24), 32800).

cell((10,0), 0).
cell((10,1), 0).
cell((10,2), 72).
cell((10,3), 3089).
cell((10,4), 1025).
cell((10,5), 1025).
cell((10,6), 1025).
cell((10,7), 1097).
cell((10,8), 2064).
cell((10,9), 0).
cell((10,10), 32800).
cell((10,11), 0).
cell((10,12), 0).
cell((10,13), 0).
cell((10,14), 0).
cell((10,15), 0).
cell((10,16), 0).
cell((10,17), 0).
cell((10,18), 0).
cell((10,19), 0).
cell((10,20), 0).
cell((10,21), 0).
cell((10,22), 0).
cell((10,23), 0).
cell((10,24), 32800).

cell((11,0), 0).
cell((11,1), 0).
cell((11,2), 0).
cell((11,3), 0).
cell((11,4), 0).
cell((11,5), 0).
cell((11,6), 0).
cell((11,7), 0).
cell((11,8), 0).
cell((11,9), 0).
cell((11,10), 72).
cell((11,11), 1025).
cell((11,12), 1025).
cell((11,13), 1025).
cell((11,14), 1025).
cell((11,15), 1025).
cell((11,16), 1025).
cell((11,17), 1025).
cell((11,18), 1025).
cell((11,19), 1025).
cell((11,20), 1025).
cell((11,21), 1025).
cell((11,22), 1025).
cell((11,23), 1025).
cell((11,24), 2064).

cell((12,0), 0).
cell((12,1), 0).
cell((12,2), 0).
cell((12,3), 0).
cell((12,4), 0).
cell((12,5), 0).
cell((12,6), 0).
cell((12,7), 0).
cell((12,8), 0).
cell((12,9), 0).
cell((12,10), 0).
cell((12,11), 0).
cell((12,12), 0).
cell((12,13), 0).
cell((12,14), 0).
cell((12,15), 0).
cell((12,16), 0).
cell((12,17), 0).
cell((12,18), 0).
cell((12,19), 0).
cell((12,20), 0).
cell((12,21), 0).
cell((12,22), 0).
cell((12,23), 0).
cell((12,24), 0).

cell((13,0), 0).
cell((13,1), 0).
cell((13,2), 0).
cell((13,3), 0).
cell((13,4), 0).
cell((13,5), 0).
cell((13,6), 0).
cell((13,7), 0).
cell((13,8), 0).
cell((13,9), 0).
cell((13,10), 0).
cell((13,11), 0).
cell((13,12), 0).
cell((13,13), 0).
cell((13,14), 0).
cell((13,15), 0).
cell((13,16), 0).
cell((13,17), 0).
cell((13,18), 0).
cell((13,19), 0).
cell((13,20), 0).
cell((13,21), 0).
cell((13,22), 0).
cell((13,23), 0).
cell((13,24), 0).

cell((14,0), 0).
cell((14,1), 0).
cell((14,2), 0).
cell((14,3), 0).
cell((14,4), 0).
cell((14,5), 0).
cell((14,6), 0).
cell((14,7), 0).
cell((14,8), 0).
cell((14,9), 0).
cell((14,10), 0).
cell((14,11), 0).
cell((14,12), 0).
cell((14,13), 0).
cell((14,14), 0).
cell((14,15), 0).
cell((14,16), 0).
cell((14,17), 0).
cell((14,18), 0).
cell((14,19), 0).
cell((14,20), 0).
cell((14,21), 0).
cell((14,22), 0).
cell((14,23), 0).
cell((14,24), 0).